# Objective value = 1983.35467126729
x[0] 1
x[1] 1
x[2] -3.4694469519536142e-17
x[3] 1
x[4] 1
x[5] 0
x[6] 1
x[7] 0
x[8] 1
x[9] 0
x[10] -3.4694469519536142e-17
x[11] 1
x[12] 0
x[13] 1
x[14] 1
x[15] 1
x[16] 1
x[17] 0
x[18] 0
x[19] 1
x[20] 0
x[21] 0
x[22] 0
x[23] -1.3877787807814457e-16
x[24] 1
x[25] 1
x[26] 1
x[27] 1
x[28] 1
x[29] 1
x[30] 1
x[31] 1
x[32] 1
x[33] 1
x[34] -2.1857515797307769e-16
x[35] 0
x[36] 1
x[37] 0
x[38] 1
x[39] -2.1857515797307769e-16
x[40] 1
x[41] 1
x[42] 1
x[43] 1
x[44] 0
x[45] 0
x[46] 0
x[47] 0
x[48] 0
x[49] 1
x[50] 0
x[51] 0
x[52] 1
x[53] 0
x[54] 1
x[55] 1
x[56] 1
x[57] 1
x[58] 0
x[59] 6.5225602696727947e-16
x[60] 1
x[61] 0
x[62] 0
x[63] 1
x[64] 0
x[65] 1
x[66] 1
x[67] 1
x[68] 1
x[69] 1
x[70] 1
x[71] 1
x[72] 0
x[73] 0
x[74] 1.5959455978986625e-16
x[75] -3.4694469519536142e-17
x[76] 1
x[77] 1
x[78] 1
x[79] 0
x[80] 1
x[81] 1
x[82] 0
x[83] 1
x[84] 0
x[85] 0
x[86] 0
x[87] 1
x[88] 0
x[89] 0
x[90] 0
x[91] -3.4694469519536142e-17
x[92] 0
x[93] 1
x[94] 1
x[95] 1
x[96] 1
x[97] 1
x[98] 1
x[99] 1
x[100] 0
x[101] -3.4694469519536142e-17
x[102] 1
x[103] 1
x[104] 1
x[105] 0
x[106] 1
x[107] 1
x[108] 0
x[109] 0
x[110] 0
x[111] 0
x[112] 0
x[113] 1
x[114] 1
x[115] 0
x[116] 1
x[117] 1
x[118] 0
x[119] 0
x[120] -3.4694469519536142e-17
x[121] 1
x[122] 1
x[123] 1
x[124] 1
x[125] -2.1857515797307769e-16
x[126] 1
x[127] 1
x[128] -3.4694469519536142e-17
x[129] 1
x[130] 1
x[131] 1
x[132] 1
x[133] 9.9999999999999989e-01
x[134] 1
x[135] 1
x[136] -2.1857515797307769e-16
x[137] 0
x[138] 1
x[139] 1
x[140] 1
x[141] 0
x[142] 1
x[143] 1
x[144] 1
x[145] 0
x[146] -1.3877787807814457e-16
x[147] 2.7755575615628914e-17
x[148] 1
x[149] 1
x[150] 0
x[151] 0
x[152] 1
x[153] 1
x[154] 0
x[155] 0
x[156] 0
x[157] 0
x[158] 9.9999999999999989e-01
x[159] 0
x[160] 1
x[161] 1
x[162] 1
x[163] 1
x[164] 5.7939764097625357e-16
x[165] 1
x[166] 0
x[167] 0
x[168] 0
x[169] 5.7939764097625357e-16
x[170] 1
x[171] 1
x[172] 0
x[173] 0
x[174] 1
x[175] 1
x[176] 2.7755575615628914e-17
x[177] 1
x[178] 1
x[179] 1
x[180] 1
x[181] 1
x[182] 0
x[183] 1
x[184] 1
x[185] 1
x[186] 0
x[187] 1
x[188] 1
x[189] 0
x[190] 1
x[191] 1
x[192] 0
x[193] 1
x[194] 1
x[195] 1
x[196] 1
x[197] 0
x[198] -3.4694469519536142e-17
x[199] 1
x[200] 1
x[201] 1
x[202] 1
x[203] 1
x[204] 0
x[205] 1
x[206] 1
x[207] 0
x[208] 0
x[209] 0
x[210] 1
x[211] 1
x[212] 1
x[213] 9.9999999999999989e-01
x[214] 1
x[215] 0
x[216] 1
x[217] 0
x[218] 0
x[219] -1.3877787807814457e-16
x[220] 0
x[221] 1
x[222] -1.3877787807814457e-17
x[223] 0
x[224] 0
x[225] 0
x[226] 0
x[227] 0
x[228] 1
x[229] 1
x[230] 0
x[231] 1
x[232] 1
x[233] 0
x[234] 1
x[235] 1
x[236] 0
x[237] 1
x[238] 1
x[239] 1
x[240] 0
x[241] 0
x[242] 0
x[243] 1
x[244] 0
x[245] 1
x[246] 1
x[247] 2.7755575615628914e-17
x[248] -1.3877787807814457e-17
x[249] 1
x[250] 1
x[251] 0
x[252] 1
x[253] 0
x[254] 1
x[255] 1
x[256] 0
x[257] 1
x[258] -3.4694469519536142e-17
x[259] 1
x[260] 1
x[261] 1
x[262] 1
x[263] -5.1347814888913490e-16
x[264] 1
x[265] 0
x[266] 1
x[267] 1
x[268] 1
x[269] 0
x[270] 1
x[271] 1
x[272] 1
x[273] 1
x[274] 1
x[275] -2.1857515797307769e-16
x[276] 1
x[277] 1
x[278] 1
x[279] 0
x[280] 0
x[281] 1
x[282] 1
x[283] 1
x[284] 1
x[285] 0
x[286] 1
x[287] 0
x[288] 0
x[289] 1
x[290] 1
x[291] 1
x[292] 1
x[293] 1
x[294] 0
x[295] 1
x[296] -3.4694469519536142e-17
x[297] 1
x[298] 1
x[299] 0
x[300] 1
x[301] 0
x[302] 1
x[303] 1
x[304] 1
x[305] 1
x[306] 1
x[307] 1
x[308] 1
x[309] 1
x[310] 1
x[311] -3.4694469519536142e-17
x[312] 1
x[313] 0
x[314] 0
x[315] 0
x[316] 0
x[317] 0
x[318] 1
x[319] 1
x[320] 1
x[321] 1
x[322] 1
x[323] 9.9999999999999989e-01
x[324] 0
x[325] 1
x[326] 1
x[327] -3.4694469519536142e-17
x[328] 0
x[329] 0
x[330] 1
x[331] 0
x[332] 0
x[333] 1
x[334] 0
x[335] 1
x[336] 0
x[337] 0
x[338] 1
x[339] 0
x[340] 0
x[341] 0
x[342] 0
x[343] 1
x[344] 1
x[345] 1
x[346] 0
x[347] 0
x[348] 0
x[349] 9.9999999999999989e-01
x[350] 1
x[351] 0
x[352] 1
x[353] -3.4694469519536142e-17
x[354] 1
x[355] 1
x[356] 9.9999999999999989e-01
x[357] 0
x[358] 0
x[359] 1
x[360] 0
x[361] 0
x[362] 1
x[363] 1
x[364] 1
x[365] 1
x[366] 1
x[367] 0
x[368] 1
x[369] 1
x[370] 0
x[371] 1
x[372] 1
x[373] 0
x[374] 1
x[375] 9.9999999999999989e-01
x[376] 1
x[377] 1
x[378] 1
x[379] 1
x[380] 1
x[381] 0
x[382] -3.4694469519536142e-17
x[383] 1
x[384] 1
x[385] 0
x[386] 1
x[387] -3.4694469519536142e-17
x[388] 1
x[389] 1
x[390] 0
x[391] 0
x[392] 1
x[393] 1
x[394] 1
x[395] 1
x[396] 1
x[397] 0
x[398] 0
x[399] 1
x[400] 0
x[401] 1
x[402] 1
x[403] 1
x[404] 1
x[405] 1
x[406] 0
x[407] 1
x[408] 1
x[409] 1
x[410] 1
x[411] 1
x[412] 0
x[413] 1
x[414] 1
x[415] 2.7755575615628914e-17
x[416] 0
x[417] 1
x[418] 1
x[419] 1
x[420] 1
x[421] 0
x[422] 1
x[423] 0
x[424] -3.4694469519536142e-17
x[425] 0
x[426] 1
x[427] 1
x[428] 1
x[429] 1
x[430] 0
x[431] 9.9999999999999978e-01
x[432] 1
x[433] 1
x[434] 1
x[435] 1
x[436] 1
x[437] 1
x[438] 1
x[439] 1
x[440] 1
x[441] 1
x[442] 0
x[443] 1
x[444] 9.9999999999999989e-01
x[445] 1
x[446] 1
x[447] 0
x[448] 0
x[449] 1
x[450] 1
x[451] 0
x[452] 0
x[453] 0
x[454] 1
x[455] 0
x[456] 0
x[457] 1
x[458] -3.4694469519536142e-17
x[459] 0
x[460] 1
x[461] 1
x[462] 0
x[463] 0
x[464] -3.4694469519536142e-17
x[465] 0
x[466] 1
x[467] -2.1857515797307769e-16
x[468] 1
x[469] 0
x[470] 1
x[471] 1
x[472] -3.4694469519536142e-17
x[473] 1
x[474] 1
x[475] 1
x[476] 1
x[477] -3.4694469519536142e-17
x[478] 0
x[479] 0
x[480] 0
x[481] 1
x[482] 0
x[483] 1
x[484] 1
x[485] 1
x[486] 0
x[487] 0
x[488] 1
x[489] 1
x[490] 1
x[491] 0
x[492] 1
x[493] 1
x[494] 0
x[495] 1
x[496] 1
x[497] 0
x[498] 1
x[499] 1
x[500] 0
x[501] 1
x[502] 0
x[503] 0
x[504] 1
x[505] 1
x[506] 1
x[507] 2.7755575615628914e-17
x[508] 0
x[509] 1
x[510] 1
x[511] 0
x[512] 0
x[513] 1
x[514] 0
x[515] 1
x[516] 1
x[517] 5.7939764097625357e-16
x[518] 0
x[519] -3.4694469519536142e-17
x[520] 1
x[521] 0
x[522] 1
x[523] 0
x[524] 1
x[525] 0
x[526] -2.1857515797307769e-16
x[527] 0
x[528] 0
x[529] 1
x[530] 1
x[531] 0
x[532] 0
x[533] 1
x[534] -2.1857515797307769e-16
x[535] 0
x[536] 0
x[537] 1
x[538] -3.4694469519536142e-17
x[539] 0
x[540] 0
x[541] 1
x[542] 0
x[543] 1
x[544] 1
x[545] 0
x[546] 1
x[547] 1
x[548] 1
x[549] -2.1857515797307769e-16
x[550] 0
x[551] 1
x[552] 0
x[553] 1
x[554] 1
x[555] 1
x[556] 0
x[557] 1
x[558] 1
x[559] 1
x[560] -1.3877787807814457e-17
x[561] 0
x[562] -3.4694469519536142e-17
x[563] 1
x[564] 0
x[565] 1
x[566] -2.1857515797307769e-16
x[567] 1
x[568] 1
x[569] 0
x[570] 0
x[571] 0
x[572] 0
x[573] 1
x[574] 1
x[575] 1
x[576] 1
x[577] 1
x[578] 1
x[579] 0
x[580] 1
x[581] 1
x[582] 1
x[583] 0
x[584] 0
x[585] 1
x[586] 1
x[587] -3.4694469519536142e-17
x[588] 1
x[589] 1
x[590] 1
x[591] 1
x[592] 1
x[593] 1
x[594] 0
x[595] 1
x[596] 0
x[597] 1
x[598] 0
x[599] 1
x[600] 0
x[601] -3.4694469519536142e-17
x[602] 0
x[603] 1
x[604] 0
x[605] 1
x[606] 0
x[607] 0
x[608] 1
x[609] 1
x[610] 1
x[611] 1
x[612] 0
x[613] 1
x[614] 0
x[615] 1
x[616] 0
x[617] 1
x[618] 1
x[619] 1
x[620] 0
x[621] 1
x[622] 1
x[623] 1
x[624] 1
x[625] 1
x[626] 0
x[627] 1
x[628] 0
x[629] 0
x[630] 1
x[631] 0
x[632] 0
x[633] 1
x[634] 1
x[635] 0
x[636] -3.4694469519536142e-17
x[637] 0
x[638] 1
x[639] 0
x[640] 0
x[641] 1
x[642] 0
x[643] 1
x[644] 0
x[645] 1
x[646] 1
x[647] 0
x[648] 1
x[649] 0
x[650] 1
x[651] -3.4694469519536142e-17
x[652] -1.3877787807814457e-16
x[653] 0
x[654] 1
x[655] 1
x[656] 0
x[657] -3.4694469519536142e-17
x[658] -3.4694469519536142e-17
x[659] 0
x[660] 1
x[661] 0
x[662] 0
x[663] 0
x[664] 1
x[665] 1
x[666] 1
x[667] -3.4694469519536142e-17
x[668] 0
x[669] 1
x[670] 0
x[671] 0
x[672] 1
x[673] 1
x[674] 0
x[675] 0
x[676] 0
x[677] 0
x[678] 1
x[679] 1
x[680] 1
x[681] 1
x[682] 0
x[683] 0
x[684] 1
x[685] 0
x[686] 1
x[687] 0
x[688] 0
x[689] 1
x[690] 1
x[691] 1
x[692] 1
x[693] -1.3877787807814457e-16
x[694] 1
x[695] 1
x[696] 1
x[697] 0
x[698] 1
x[699] 1
x[700] 0
x[701] 1
x[702] 1
x[703] 1
x[704] 1
x[705] 1
x[706] 1.0000000000000002e+00
x[707] 1
x[708] 0
x[709] 2.9143354396410359e-16
x[710] 1
x[711] 1
x[712] 1
x[713] 0
x[714] -2.1857515797307769e-16
x[715] 1
x[716] -1.3877787807814457e-16
x[717] 0
x[718] 0
x[719] 1
x[720] 0
x[721] 1
x[722] 1
x[723] 1
x[724] 0
x[725] 1
x[726] 1
x[727] 1
x[728] 1
x[729] 1
x[730] 0
x[731] 1
x[732] -2.1857515797307769e-16
x[733] -3.4694469519536142e-17
x[734] 1
x[735] 0
x[736] 1
x[737] 0
x[738] -1.3877787807814457e-17
x[739] 1
x[740] 0
x[741] 1
x[742] 0
x[743] 0
x[744] 1
x[745] 1
x[746] 1
x[747] 1
x[748] 0
x[749] 0
x[750] 1
x[751] 1
x[752] 1
x[753] -1.4571677198205180e-16
x[754] 0
x[755] 1
x[756] 1
x[757] 1
x[758] 1
x[759] 0
x[760] 0
x[761] 0
x[762] 1
x[763] 9.9999999999999989e-01
x[764] 1
x[765] 1
x[766] 1
x[767] 0
x[768] 0
x[769] 1
x[770] 1
x[771] 1
x[772] -1.3877787807814457e-17
x[773] 0
x[774] 1
x[775] 0
x[776] 1
x[777] 0
x[778] 0
x[779] 0
x[780] 1
x[781] 0
x[782] 1
x[783] 0
x[784] -3.4694469519536142e-17
x[785] 1
x[786] 0
x[787] -3.4694469519536142e-17
x[788] 1
x[789] 0
x[790] 1
x[791] 0
x[792] 1
x[793] 1
x[794] 0
x[795] -2.1857515797307769e-16
x[796] 1
x[797] 1
x[798] 0
x[799] 1
x[800] 0
x[801] 1
x[802] 1
x[803] 1
x[804] 0
x[805] 1
x[806] 0
x[807] 0
x[808] 0
x[809] 8.3266726846886741e-17
x[810] 1
x[811] 1
x[812] 0
x[813] 1
x[814] 0
x[815] 0
x[816] 0
x[817] 1
x[818] 0
x[819] 0
x[820] 0
x[821] 1
x[822] 1
x[823] 1
x[824] 1
x[825] -3.4694469519536142e-17
x[826] 0
x[827] 1
x[828] 1
x[829] 1
x[830] 1
x[831] 0
x[832] 0
x[833] 1
x[834] 0
x[835] 0
x[836] 0
x[837] 1
x[838] 1
x[839] 0
x[840] 0
x[841] 0
x[842] 0
x[843] 1
x[844] 0
x[845] 1
x[846] 1
x[847] 1
x[848] 1
x[849] 0
x[850] 0
x[851] 0
x[852] 0
x[853] 0
x[854] 1
x[855] 1
x[856] 1
x[857] 0
x[858] 0
x[859] 1
x[860] 0
x[861] 1
x[862] -3.4694469519536142e-17
x[863] 1
x[864] 1
x[865] 1
x[866] 1
x[867] 1
x[868] 0
x[869] 0
x[870] 1
x[871] 0
x[872] 1
x[873] 0
x[874] -2.1857515797307769e-16
x[875] 0
x[876] 1
x[877] 0
x[878] 1
x[879] 0
x[880] 0
x[881] 1
x[882] 1
x[883] 1
x[884] 1
x[885] 1
x[886] 1
x[887] 1
x[888] 0
x[889] 1
x[890] 5.7939764097625357e-16
x[891] -3.4694469519536142e-17
x[892] 1
x[893] 1
x[894] 1
x[895] 1
x[896] 1
x[897] 1
x[898] 0
x[899] 1
x[900] 1
x[901] -1.2073675392798577e-15
x[902] 0
x[903] 1
x[904] 1
x[905] 9.9999999999999989e-01
x[906] 1
x[907] 0
x[908] 0
x[909] 1
x[910] 1
x[911] 1
x[912] 1
x[913] 1
x[914] 0
x[915] 0
x[916] 1
x[917] -2.1857515797307769e-16
x[918] 1
x[919] 1
x[920] 1
x[921] 0
x[922] 1
x[923] 1
x[924] 0
x[925] 0
x[926] -1.2073675392798577e-15
x[927] 1
x[928] 1
x[929] 1
x[930] 0
x[931] 9.9999999999999989e-01
x[932] 0
x[933] 0
x[934] 1
x[935] 0
x[936] 0
x[937] 1
x[938] 0
x[939] 0
x[940] 0
x[941] 1
x[942] 0
x[943] 0
x[944] 0
x[945] 1.3877787807814457e-17
x[946] 0
x[947] 0
x[948] 0
x[949] 1
x[950] 0
x[951] 0
x[952] 0
x[953] 0
x[954] 0
x[955] 1
x[956] 0
x[957] 0
x[958] 0
x[959] 1
x[960] 0
x[961] 0
x[962] 1
x[963] 0
x[964] 1
x[965] 1
x[966] 0
x[967] 0
x[968] 0
x[969] 1
x[970] 1
x[971] 1
x[972] 1
x[973] 1
x[974] 1
x[975] 1
x[976] 0
x[977] 0
x[978] 1
x[979] 1
x[980] 1
x[981] 0
x[982] 0
x[983] 1
x[984] 1
x[985] 1
x[986] 0
x[987] 1
x[988] 1
x[989] 1
x[990] 0
x[991] 0
x[992] 0
x[993] 1
x[994] 0
x[995] 1
x[996] 0
x[997] 1
x[998] 5.7939764097625357e-16
x[999] 1
